#########################################
# 		MAK - 2022/07/28
#########################################
#processors * 1 1 # long channel 
units        real
atom_style   full
boundary p p p
molecule TIP4P2005 TIP4P2005.txt 
# --------------------------------------- 
# 		GENERAL
# --------------------------------------- 
variable SC equal 7.5
variable simT equal 300.0 
variable simP equal 1
variable seed equal 880713
# --------------------------------------- 
# 		MD RUNTIME SETTING 
# --------------------------------------- 
timestep 1.0 #fs - timestep
variable MD equal 100#00#00 # = 1ns 
variable WRITE equal 1#0#00#0 # = 10 ps >>> 100 dumps
variable outthermo equal 1#0#0 # = 0.1ps
variable EVAPORATE equal 100#00#00 # = 1ns # total evporation time 
variable THISOFTEN equal 1 # evaporate this often
variable dampt equal 100 # = 0.1ps
# --------------------------------------- 
#		PARTICLE-WALL PROPERTIES 
# --------------------------------------- 
# --- SHAKE for water structure 
variable shake_out equal 0  
variable shake_iter equal 20 
variable shake_tol equal 0.0001  
variable shake_bond equal 1  
variable shake_angle equal 1 
# --- LJ for wall
variable lj126_epsilon equal 0.16275 
variable lj126_sigma equal 3.16435 
variable lj126_cutoff equal 12
# --------------------------------------- 
#		DESIGN SETTINGS 
# --------------------------------------- 
variable BOX_W equal 100# =10nm
variable BOX_H equal 50#=5nm
variable BOX_L equal 1000# =100nm
variable skin equal 1.5
# --- channel main specs centered at 0 0 0 
variable box_xhi equal ${BOX_L}/2 
variable box_xlo equal -${BOX_L}/2 
variable box_yhi equal ${BOX_W}/2
variable box_ylo equal -${BOX_W}/2
variable box_zhi equal ${BOX_H}/2
variable box_zlo equal -${BOX_H}/2
# ---- channel walls   
variable tube_xlo equal ${box_xlo}
variable tube_xhi equal ${box_xhi}
variable tube_ylo equal ${box_ylo}
variable tube_yhi equal ${box_yhi}
variable tube_zlo equal ${box_zlo}
variable tube_zhi equal ${box_zhi}
region tube block ${tube_xlo} ${tube_xhi} ${tube_ylo} ${tube_yhi} ${tube_zlo} ${tube_zhi} #open 1 open 2 units box
# ---- channel to fill in the water  
variable channel_xlo equal ${box_xlo}+${skin}
variable channel_xhi equal ${box_xhi}-${skin}  
variable channel_ylo equal ${box_ylo}+${skin}
variable channel_yhi equal ${box_yhi}-${skin} 
variable channel_zlo equal ${box_zlo}+${skin}
variable channel_zhi equal ${box_zhi}-${skin} 
region channel block ${channel_xlo} ${channel_xhi} ${channel_ylo} ${channel_yhi} ${channel_zlo} ${channel_zhi} units box
# --- chamber on left walls  
variable chamber_xhi equal ${box_xlo}
variable chamber_xlo equal 2*${box_xlo}
variable chamber_yhi equal 5*${box_yhi}
variable chamber_ylo equal 5*${box_ylo}
variable chamber_zhi equal 5*${box_zhi}
variable chamber_zlo equal 5*${box_zlo}
region chamber block ${chamber_xlo} ${chamber_xhi} ${chamber_ylo} ${chamber_yhi} ${chamber_zlo} ${chamber_zhi} #open 1 open 3 open 4 open 5 open 6 units box
# --- chamber to fill in water 
variable bath_xlo equal ${chamber_xlo}+${skin}
variable bath_xhi equal ${chamber_xhi}-${skin}  
variable bath_ylo equal ${chamber_ylo}+${skin}
variable bath_yhi equal ${chamber_yhi}-${skin} 
variable bath_zlo equal ${chamber_zlo}+${skin}
variable bath_zhi equal ${chamber_zhi}-${skin} 
region bath block ${bath_xlo} ${bath_xhi} ${bath_ylo} ${bath_yhi} ${bath_zlo} ${bath_zhi} units box
# --- blocker 
variable chamber_xhi equal 0.99*${chamber_xlo}
variable chamber_xlo equal ${chamber_xlo}
region blocker block ${chamber_xlo} ${chamber_xhi} ${chamber_ylo} ${chamber_yhi} ${chamber_zlo} ${chamber_zhi} units box 
# --- - evaporation slice
variable slice_xlo equal 0.99*${channel_xhi}
variable slice_xhi equal ${channel_xhi}
region slice block ${slice_xlo} ${slice_xhi} ${channel_ylo} ${channel_yhi} ${channel_zlo} ${channel_zhi} units box
# --- simulation box 
region BOX union 2 chamber tube open 1 open 2 units box
# --- defining box: see https://docs.lammps.org/Howto_tip4p.html 
create_box 2 BOX& 
		bond/types 1 &
		angle/types 1 &
		extra/bond/per/atom 2 &
		extra/angle/per/atom 1 &
		extra/special/per/atom 2 
# --- defining potentials: see https://docs.lammps.org/Howto_tip4p.html 
bond_style	harmonic
bond_coeff 1 0.0 0.9572 # TIP4P/2005 force field
angle_style	harmonic
angle_coeff 1 0.0 104.52 # TIP4P/2005 force field
pair_style	lj/cut/tip4p/long 1 2 1 1 0.1250 12.0
pair_coeff 1 1 0.16275 3.16435 # TIP4P/2005 force field
pair_coeff 2 2 0.0 0.0 # TIP4P/2005 force field
pair_coeff 1 2 0.0 0.0 # TIP4P/2005 force field
kspace_style	pppm/tip4p 1.0e-4 #particle-particle particle-mesh
# --- defining particles 
mass 1 15.9994 # O
mass 2 1.008 # H
variable radius atom (type==1)*1.0+(type==2)*0.5
lattice sc ${SC} # --- defining lattice: see https://docs.lammps.org/lattice.html 
create_atoms 0 region tube mol TIP4P2005 ${seed} # filling atom to start simulation 
create_atoms 0 region bath mol TIP4P2005 ${seed} # filling atom to start simulation 
group tip4p type  1  2
group oxygens type  1
dump DUMPs all custom ${WRITE} pre.* id mol type element mass v_radius x y z vx vy vz fx fy fz q # --- defining dumps 
dump_modify DUMPs element O H 
velocity all create ${simT} ${seed} # --- temperature-velocity consideration
run 0
velocity all scale ${simT}
print "OOOOOOOOOOOOOOOOOOOOOOOOOOOOOOOOOO"
print "Step 1: Bringing system to equilibrium under NVE with Shake at T = ${simT} K with thermostat ...." 
fix shakeTIP4P tip4p shake ${shake_tol} ${shake_iter} ${shake_out} b ${shake_bond} a ${shake_angle}
fix nvefix all nve  # esnemble is NVE
compute H2O_T tip4p temp # getting temperature and updating it 
fix adjustT tip4p temp/berendsen ${simT} ${simT} 10 # K K 1fs >>> minimization E <<< 
fix_modify adjustT temp H2O_T
fix walls oxygens wall/region BOX lj126 ${lj126_epsilon} ${lj126_sigma} ${lj126_cutoff} 
fix_modify walls energy  yes # adding wall-particle energy 
fix mirrorL all oneway 1 blocker x
fix mirrorR all oneway 1 slice -x
neigh_modify delay 0 every 1 check yes
thermo ${outthermo} # output screen and log
thermo_style custom &
		step &
		temp press density &
		vol pe ke etotal enthalpy &
		evdwl etail ecoul epair emol elong &
		xlo xhi ylo yhi zlo zhi &
		pxx pyy pzz pxy pxz pyz &
		fmax fnorm  
#thermo_modify lost ignore # due to forced bubble at a later stage 
run ${MD} 
# ---
print "DONE: Step 1: Bringing system to equilibrium under NVE with Shake at T = ${simT} K with thermostat." 
print "OOOOOOOOOOOOOOOOOOOOOOOOOOOOOOOOOO"
# --- starting dynamics for step 2
print "Step 2: Monitoring evaporation ...." 
unfix mirrorR
undump DUMPs
dump DUMPs all custom ${WRITE} post.* id mol type element mass v_radius x y z vx vy vz fx fy fz q # --- defining dumps 
dump_modify DUMPs element O H
fix evaporates all evaporate ${THISOFTEN} 1000000 slice ${seed} molecule yes # remove everything in this region 
run ${EVAPORATE}
print "DONE: Step 2: Monitoring evaporation." 
print "OOOOOOOOOOOOOOOOOOOOOOOOOOOOOOOOOO"
print "All DONE." 
# End of file
